%%%%%%%%%% Sudoku parameters %%%%%%%%%%
size = 9;

clue = [| 0, 0, 0,   0, 0, 0,   0, 0, 0
        | 0, 0, 0,   0, 0, 0,   0, 0, 0
        | 0, 0, 0,   0, 0, 0,   0, 0, 0

        | 0, 0, 0,   0, 0, 0,   0, 0, 0
        | 0, 0, 0,   0, 0, 0,   0, 0, 0
        | 0, 0, 0,   0, 0, 0,   0, 0, 0

        | 0, 0, 0,   0, 0, 0,   0, 0, 0
        | 0, 0, 0,   0, 0, 0,   0, 0, 0
        | 0, 0, 0,   0, 0, 0,   0, 0, 0
        |];

%%%%%%%%%% Killer parameters %%%%%%%%%%

cage_count = 0;
cage_max_length = 0;

cage_totals = [];

cage_cells = [];
        %         (r: 1, c: 1), (r: 1, c: 2), (r: 0, c: 0), (r: 0, c: 0), (r: 0, c: 0), (r: 0, c: 0), (r: 0, c: 0), (r: 0, c: 0), (r: 0, c: 0)
        %       | (r: 1, c: 4), (r: 2, c: 4), (r: 0, c: 0), (r: 0, c: 0), (r: 0, c: 0), (r: 0, c: 0), (r: 0, c: 0), (r: 0, c: 0), (r: 0, c: 0)
        %       | (r: 1, c: 5), (r: 2, c: 5), (r: 0, c: 0), (r: 0, c: 0), (r: 0, c: 0), (r: 0, c: 0), (r: 0, c: 0), (r: 0, c: 0), (r: 0, c: 0)
        %       | (r: 1, c: 6), (r: 2, c: 6), (r: 0, c: 0), (r: 0, c: 0), (r: 0, c: 0), (r: 0, c: 0), (r: 0, c: 0), (r: 0, c: 0), (r: 0, c: 0)
        %       | (r: 3, c: 4), (r: 3, c: 5), (r: 0, c: 0), (r: 0, c: 0), (r: 0, c: 0), (r: 0, c: 0), (r: 0, c: 0), (r: 0, c: 0), (r: 0, c: 0)
        %       | (r: 3, c: 8), (r: 3, c: 9), (r: 0, c: 0), (r: 0, c: 0), (r: 0, c: 0), (r: 0, c: 0), (r: 0, c: 0), (r: 0, c: 0), (r: 0, c: 0)
        %       | (r: 4, c: 1), (r: 4, c: 2), (r: 5, c: 2), (r: 0, c: 0), (r: 0, c: 0), (r: 0, c: 0), (r: 0, c: 0), (r: 0, c: 0), (r: 0, c: 0)
        %       | (r: 5, c: 6), (r: 6, c: 4), (r: 6, c: 5), (r: 6, c: 6), (r: 0, c: 0), (r: 0, c: 0), (r: 0, c: 0), (r: 0, c: 0), (r: 0, c: 0)
        %       | (r: 7, c: 1), (r: 8, c: 1), (r: 0, c: 0), (r: 0, c: 0), (r: 0, c: 0), (r: 0, c: 0), (r: 0, c: 0), (r: 0, c: 0), (r: 0, c: 0)
        %       | (r: 8, c: 4), (r: 9, c: 4), (r: 0, c: 0), (r: 0, c: 0), (r: 0, c: 0), (r: 0, c: 0), (r: 0, c: 0), (r: 0, c: 0), (r: 0, c: 0)
        %       | (r: 8, c: 6), (r: 9, c: 6), (r: 0, c: 0), (r: 0, c: 0), (r: 0, c: 0), (r: 0, c: 0), (r: 0, c: 0), (r: 0, c: 0), (r: 0, c: 0)
        %       | (r: 8, c: 7), (r: 8, c: 8), (r: 9, c: 7), (r: 0, c: 0), (r: 0, c: 0), (r: 0, c: 0), (r: 0, c: 0), (r: 0, c: 0), (r: 0, c: 0)
        %       | (r: 9, c: 2), (r: 9, c: 3), (r: 0, c: 0), (r: 0, c: 0), (r: 0, c: 0), (r: 0, c: 0), (r: 0, c: 0), (r: 0, c: 0), (r: 0, c: 0)
        %       | (r: 2, c: 3), (r: 3, c: 2), (r: 3, c: 3), (r: 4, c: 3), (r: 5, c: 3), (r: 6, c: 3), (r: 7, c: 2), (r: 7, c: 3), (r: 7, c: 4)
        %       | (r: 2, c: 7), (r: 3, c: 6), (r: 3, c: 7), (r: 4, c: 7), (r: 5, c: 7), (r: 6, c: 7), (r: 7, c: 6), (r: 7, c: 7), (r: 7, c: 8)
        %       |];

%%%%%%%%%% Thermometer parameters %%%%%%%%%%

thermo_count = 0;
thermo_max_length = 0;

thermo_cells = [];

%%%%%%%% German Whispers parameters %%%%%%%%%

GW_count = 0;
GW_max_length = 0;

GW_cells = []; 
%       (r: 2, c: 3), (r: 3, c: 3), (r: 4, c: 3), (r: 5, c: 3), (r: 6, c: 3), (r: 0, c: 0)
%     | (r: 2, c: 7), (r: 3, c: 7), (r: 4, c: 7), (r: 5, c: 7), (r: 6, c: 7), (r: 7, c: 7)
%     | (r: 6, c: 9), (r: 7, c: 9), (r: 0, c: 0), (r: 0, c: 0), (r: 0, c: 0), (r: 0, c: 0)
%     |]

%%%%%%%% Partial Kropki constraints %%%%%%%%%

krp_count_white = 17;
krp_cells_white = [
        ((r: 1, c: 1), (r: 1, c: 2)),
        ((r: 2, c: 1), (r: 3, c: 1)),
        ((r: 2, c: 4), (r: 2, c: 5)),
        ((r: 3, c: 4), (r: 4, c: 4)),
        ((r: 4, c: 2), (r: 4, c: 3)),
        ((r: 4, c: 8), (r: 4, c: 9)),
        ((r: 5, c: 2), (r: 6, c: 2)),
        ((r: 5, c: 7), (r: 6, c: 7)),
        ((r: 5, c: 8), (r: 5, c: 9)),
        ((r: 6, c: 3), (r: 6, c: 4)),
        ((r: 7, c: 1), (r: 8, c: 1)),
        ((r: 7, c: 2), (r: 8, c: 2)),
        ((r: 7, c: 5), (r: 8, c: 5)),
        ((r: 7, c: 6), (r: 7, c: 7)),
        ((r: 8, c: 6), (r: 8, c: 7)),
        ((r: 8, c: 7), (r: 9, c: 7)),
        ((r: 9, c: 8), (r: 9, c: 9))
];

krp_count_black = 9;
krp_cells_black = [
        ((r: 1, c: 6), (r: 1, c: 7)),
        ((r: 3, c: 1), (r: 4, c: 1)),
        ((r: 3, c: 2), (r: 4, c: 2)),
        ((r: 3, c: 6), (r: 4, c: 6)),
        ((r: 4, c: 1), (r: 4, c: 2)),
        ((r: 5, c: 3), (r: 6, c: 3)),
        ((r: 5, c: 7), (r: 5, c: 8)),
        ((r: 6, c: 4), (r: 6, c: 5)),
        ((r: 8, c: 8), (r: 8, c: 9))
];

%%%%%%%% Full Kropki constraints %%%%%%%%%

full_kropki = true;
